c *********************************
c * Circuit generated by BenCGen
c *
c * CarryLookaheadBlock_43_43_43_InOutT
c *
c * Ports with 1 gate(s): 2
c * Ports with 2 gate(s): 184
c * Ports with 3 gate(s): 43
c * Ports with 4 gate(s): 32
c * Ports with 5 gate(s): 20
c * Total gates: 281
c *********************************
p cnf 367 1094
1 132 0
-1 -132 0
1 -131 0
132 -131 0
-1 -132 131 0
1 44 -133 0
-1 44 133 0
1 -44 133 0
-1 -44 -133 0
1 -176 0
44 -176 0
-1 -44 176 0
2 45 -134 0
-2 45 134 0
2 -45 134 0
-2 -45 -134 0
2 -177 0
45 -177 0
-2 -45 177 0
3 46 -135 0
-3 46 135 0
3 -46 135 0
-3 -46 -135 0
3 -178 0
46 -178 0
-3 -46 178 0
4 47 -136 0
-4 47 136 0
4 -47 136 0
-4 -47 -136 0
4 -179 0
47 -179 0
-4 -47 179 0
5 48 -137 0
-5 48 137 0
5 -48 137 0
-5 -48 -137 0
5 -180 0
48 -180 0
-5 -48 180 0
6 49 -138 0
-6 49 138 0
6 -49 138 0
-6 -49 -138 0
6 -181 0
49 -181 0
-6 -49 181 0
7 50 -139 0
-7 50 139 0
7 -50 139 0
-7 -50 -139 0
7 -182 0
50 -182 0
-7 -50 182 0
8 51 -140 0
-8 51 140 0
8 -51 140 0
-8 -51 -140 0
8 -183 0
51 -183 0
-8 -51 183 0
9 52 -141 0
-9 52 141 0
9 -52 141 0
-9 -52 -141 0
9 -184 0
52 -184 0
-9 -52 184 0
10 53 -142 0
-10 53 142 0
10 -53 142 0
-10 -53 -142 0
10 -185 0
53 -185 0
-10 -53 185 0
11 54 -143 0
-11 54 143 0
11 -54 143 0
-11 -54 -143 0
11 -186 0
54 -186 0
-11 -54 186 0
12 55 -144 0
-12 55 144 0
12 -55 144 0
-12 -55 -144 0
12 -187 0
55 -187 0
-12 -55 187 0
13 56 -145 0
-13 56 145 0
13 -56 145 0
-13 -56 -145 0
13 -188 0
56 -188 0
-13 -56 188 0
14 57 -146 0
-14 57 146 0
14 -57 146 0
-14 -57 -146 0
14 -189 0
57 -189 0
-14 -57 189 0
15 58 -147 0
-15 58 147 0
15 -58 147 0
-15 -58 -147 0
15 -190 0
58 -190 0
-15 -58 190 0
16 59 -148 0
-16 59 148 0
16 -59 148 0
-16 -59 -148 0
16 -191 0
59 -191 0
-16 -59 191 0
17 60 -149 0
-17 60 149 0
17 -60 149 0
-17 -60 -149 0
17 -192 0
60 -192 0
-17 -60 192 0
18 61 -150 0
-18 61 150 0
18 -61 150 0
-18 -61 -150 0
18 -193 0
61 -193 0
-18 -61 193 0
19 62 -151 0
-19 62 151 0
19 -62 151 0
-19 -62 -151 0
19 -194 0
62 -194 0
-19 -62 194 0
20 63 -152 0
-20 63 152 0
20 -63 152 0
-20 -63 -152 0
20 -195 0
63 -195 0
-20 -63 195 0
21 64 -153 0
-21 64 153 0
21 -64 153 0
-21 -64 -153 0
21 -196 0
64 -196 0
-21 -64 196 0
22 65 -154 0
-22 65 154 0
22 -65 154 0
-22 -65 -154 0
22 -197 0
65 -197 0
-22 -65 197 0
23 66 -155 0
-23 66 155 0
23 -66 155 0
-23 -66 -155 0
23 -198 0
66 -198 0
-23 -66 198 0
24 67 -156 0
-24 67 156 0
24 -67 156 0
-24 -67 -156 0
24 -199 0
67 -199 0
-24 -67 199 0
25 68 -157 0
-25 68 157 0
25 -68 157 0
-25 -68 -157 0
25 -200 0
68 -200 0
-25 -68 200 0
26 69 -158 0
-26 69 158 0
26 -69 158 0
-26 -69 -158 0
26 -201 0
69 -201 0
-26 -69 201 0
27 70 -159 0
-27 70 159 0
27 -70 159 0
-27 -70 -159 0
27 -202 0
70 -202 0
-27 -70 202 0
28 71 -160 0
-28 71 160 0
28 -71 160 0
-28 -71 -160 0
28 -203 0
71 -203 0
-28 -71 203 0
29 72 -161 0
-29 72 161 0
29 -72 161 0
-29 -72 -161 0
29 -204 0
72 -204 0
-29 -72 204 0
30 73 -162 0
-30 73 162 0
30 -73 162 0
-30 -73 -162 0
30 -205 0
73 -205 0
-30 -73 205 0
31 74 -163 0
-31 74 163 0
31 -74 163 0
-31 -74 -163 0
31 -206 0
74 -206 0
-31 -74 206 0
32 75 -164 0
-32 75 164 0
32 -75 164 0
-32 -75 -164 0
32 -207 0
75 -207 0
-32 -75 207 0
33 76 -165 0
-33 76 165 0
33 -76 165 0
-33 -76 -165 0
33 -208 0
76 -208 0
-33 -76 208 0
34 77 -166 0
-34 77 166 0
34 -77 166 0
-34 -77 -166 0
34 -209 0
77 -209 0
-34 -77 209 0
35 78 -167 0
-35 78 167 0
35 -78 167 0
-35 -78 -167 0
35 -210 0
78 -210 0
-35 -78 210 0
36 79 -168 0
-36 79 168 0
36 -79 168 0
-36 -79 -168 0
36 -211 0
79 -211 0
-36 -79 211 0
37 80 -169 0
-37 80 169 0
37 -80 169 0
-37 -80 -169 0
37 -212 0
80 -212 0
-37 -80 212 0
38 81 -170 0
-38 81 170 0
38 -81 170 0
-38 -81 -170 0
38 -213 0
81 -213 0
-38 -81 213 0
39 82 -171 0
-39 82 171 0
39 -82 171 0
-39 -82 -171 0
39 -214 0
82 -214 0
-39 -82 214 0
40 83 -172 0
-40 83 172 0
40 -83 172 0
-40 -83 -172 0
40 -215 0
83 -215 0
-40 -83 215 0
41 84 -173 0
-41 84 173 0
41 -84 173 0
-41 -84 -173 0
41 -216 0
84 -216 0
-41 -84 216 0
42 85 -174 0
-42 85 174 0
42 -85 174 0
-42 -85 -174 0
42 -217 0
85 -217 0
-42 -85 217 0
43 86 -175 0
-43 86 175 0
43 -86 175 0
-43 -86 -175 0
43 -218 0
86 -218 0
-43 -86 218 0
131 -262 0
133 -262 0
-131 -133 262 0
131 -263 0
133 -263 0
134 -263 0
-131 -133 -134 263 0
176 -264 0
134 -264 0
-176 -134 264 0
131 -265 0
133 -265 0
134 -265 0
135 -265 0
-131 -133 -134 -135 265 0
176 -266 0
134 -266 0
135 -266 0
-176 -134 -135 266 0
177 -267 0
135 -267 0
-177 -135 267 0
131 -268 0
133 -268 0
134 -268 0
135 -268 0
136 -268 0
-131 -133 -134 -135 -136 268 0
176 -269 0
134 -269 0
135 -269 0
136 -269 0
-176 -134 -135 -136 269 0
177 -270 0
135 -270 0
136 -270 0
-177 -135 -136 270 0
178 -271 0
136 -271 0
-178 -136 271 0
-176 219 0
-262 219 0
176 262 -219 0
-177 220 0
-263 220 0
-264 220 0
177 263 264 -220 0
-178 221 0
-265 221 0
-266 221 0
-267 221 0
178 265 266 267 -221 0
-179 222 0
-268 222 0
-269 222 0
-270 222 0
-271 222 0
179 268 269 270 271 -222 0
222 -272 0
137 -272 0
-222 -137 272 0
222 -273 0
137 -273 0
138 -273 0
-222 -137 -138 273 0
180 -274 0
138 -274 0
-180 -138 274 0
222 -275 0
137 -275 0
138 -275 0
139 -275 0
-222 -137 -138 -139 275 0
180 -276 0
138 -276 0
139 -276 0
-180 -138 -139 276 0
181 -277 0
139 -277 0
-181 -139 277 0
222 -278 0
137 -278 0
138 -278 0
139 -278 0
140 -278 0
-222 -137 -138 -139 -140 278 0
180 -279 0
138 -279 0
139 -279 0
140 -279 0
-180 -138 -139 -140 279 0
181 -280 0
139 -280 0
140 -280 0
-181 -139 -140 280 0
182 -281 0
140 -281 0
-182 -140 281 0
-180 223 0
-272 223 0
180 272 -223 0
-181 224 0
-273 224 0
-274 224 0
181 273 274 -224 0
-182 225 0
-275 225 0
-276 225 0
-277 225 0
182 275 276 277 -225 0
-183 226 0
-278 226 0
-279 226 0
-280 226 0
-281 226 0
183 278 279 280 281 -226 0
226 -282 0
141 -282 0
-226 -141 282 0
226 -283 0
141 -283 0
142 -283 0
-226 -141 -142 283 0
184 -284 0
142 -284 0
-184 -142 284 0
226 -285 0
141 -285 0
142 -285 0
143 -285 0
-226 -141 -142 -143 285 0
184 -286 0
142 -286 0
143 -286 0
-184 -142 -143 286 0
185 -287 0
143 -287 0
-185 -143 287 0
226 -288 0
141 -288 0
142 -288 0
143 -288 0
144 -288 0
-226 -141 -142 -143 -144 288 0
184 -289 0
142 -289 0
143 -289 0
144 -289 0
-184 -142 -143 -144 289 0
185 -290 0
143 -290 0
144 -290 0
-185 -143 -144 290 0
186 -291 0
144 -291 0
-186 -144 291 0
-184 227 0
-282 227 0
184 282 -227 0
-185 228 0
-283 228 0
-284 228 0
185 283 284 -228 0
-186 229 0
-285 229 0
-286 229 0
-287 229 0
186 285 286 287 -229 0
-187 230 0
-288 230 0
-289 230 0
-290 230 0
-291 230 0
187 288 289 290 291 -230 0
230 -292 0
145 -292 0
-230 -145 292 0
230 -293 0
145 -293 0
146 -293 0
-230 -145 -146 293 0
188 -294 0
146 -294 0
-188 -146 294 0
230 -295 0
145 -295 0
146 -295 0
147 -295 0
-230 -145 -146 -147 295 0
188 -296 0
146 -296 0
147 -296 0
-188 -146 -147 296 0
189 -297 0
147 -297 0
-189 -147 297 0
230 -298 0
145 -298 0
146 -298 0
147 -298 0
148 -298 0
-230 -145 -146 -147 -148 298 0
188 -299 0
146 -299 0
147 -299 0
148 -299 0
-188 -146 -147 -148 299 0
189 -300 0
147 -300 0
148 -300 0
-189 -147 -148 300 0
190 -301 0
148 -301 0
-190 -148 301 0
-188 231 0
-292 231 0
188 292 -231 0
-189 232 0
-293 232 0
-294 232 0
189 293 294 -232 0
-190 233 0
-295 233 0
-296 233 0
-297 233 0
190 295 296 297 -233 0
-191 234 0
-298 234 0
-299 234 0
-300 234 0
-301 234 0
191 298 299 300 301 -234 0
234 -302 0
149 -302 0
-234 -149 302 0
234 -303 0
149 -303 0
150 -303 0
-234 -149 -150 303 0
192 -304 0
150 -304 0
-192 -150 304 0
234 -305 0
149 -305 0
150 -305 0
151 -305 0
-234 -149 -150 -151 305 0
192 -306 0
150 -306 0
151 -306 0
-192 -150 -151 306 0
193 -307 0
151 -307 0
-193 -151 307 0
234 -308 0
149 -308 0
150 -308 0
151 -308 0
152 -308 0
-234 -149 -150 -151 -152 308 0
192 -309 0
150 -309 0
151 -309 0
152 -309 0
-192 -150 -151 -152 309 0
193 -310 0
151 -310 0
152 -310 0
-193 -151 -152 310 0
194 -311 0
152 -311 0
-194 -152 311 0
-192 235 0
-302 235 0
192 302 -235 0
-193 236 0
-303 236 0
-304 236 0
193 303 304 -236 0
-194 237 0
-305 237 0
-306 237 0
-307 237 0
194 305 306 307 -237 0
-195 238 0
-308 238 0
-309 238 0
-310 238 0
-311 238 0
195 308 309 310 311 -238 0
238 -312 0
153 -312 0
-238 -153 312 0
238 -313 0
153 -313 0
154 -313 0
-238 -153 -154 313 0
196 -314 0
154 -314 0
-196 -154 314 0
238 -315 0
153 -315 0
154 -315 0
155 -315 0
-238 -153 -154 -155 315 0
196 -316 0
154 -316 0
155 -316 0
-196 -154 -155 316 0
197 -317 0
155 -317 0
-197 -155 317 0
238 -318 0
153 -318 0
154 -318 0
155 -318 0
156 -318 0
-238 -153 -154 -155 -156 318 0
196 -319 0
154 -319 0
155 -319 0
156 -319 0
-196 -154 -155 -156 319 0
197 -320 0
155 -320 0
156 -320 0
-197 -155 -156 320 0
198 -321 0
156 -321 0
-198 -156 321 0
-196 239 0
-312 239 0
196 312 -239 0
-197 240 0
-313 240 0
-314 240 0
197 313 314 -240 0
-198 241 0
-315 241 0
-316 241 0
-317 241 0
198 315 316 317 -241 0
-199 242 0
-318 242 0
-319 242 0
-320 242 0
-321 242 0
199 318 319 320 321 -242 0
242 -322 0
157 -322 0
-242 -157 322 0
242 -323 0
157 -323 0
158 -323 0
-242 -157 -158 323 0
200 -324 0
158 -324 0
-200 -158 324 0
242 -325 0
157 -325 0
158 -325 0
159 -325 0
-242 -157 -158 -159 325 0
200 -326 0
158 -326 0
159 -326 0
-200 -158 -159 326 0
201 -327 0
159 -327 0
-201 -159 327 0
242 -328 0
157 -328 0
158 -328 0
159 -328 0
160 -328 0
-242 -157 -158 -159 -160 328 0
200 -329 0
158 -329 0
159 -329 0
160 -329 0
-200 -158 -159 -160 329 0
201 -330 0
159 -330 0
160 -330 0
-201 -159 -160 330 0
202 -331 0
160 -331 0
-202 -160 331 0
-200 243 0
-322 243 0
200 322 -243 0
-201 244 0
-323 244 0
-324 244 0
201 323 324 -244 0
-202 245 0
-325 245 0
-326 245 0
-327 245 0
202 325 326 327 -245 0
-203 246 0
-328 246 0
-329 246 0
-330 246 0
-331 246 0
203 328 329 330 331 -246 0
246 -332 0
161 -332 0
-246 -161 332 0
246 -333 0
161 -333 0
162 -333 0
-246 -161 -162 333 0
204 -334 0
162 -334 0
-204 -162 334 0
246 -335 0
161 -335 0
162 -335 0
163 -335 0
-246 -161 -162 -163 335 0
204 -336 0
162 -336 0
163 -336 0
-204 -162 -163 336 0
205 -337 0
163 -337 0
-205 -163 337 0
246 -338 0
161 -338 0
162 -338 0
163 -338 0
164 -338 0
-246 -161 -162 -163 -164 338 0
204 -339 0
162 -339 0
163 -339 0
164 -339 0
-204 -162 -163 -164 339 0
205 -340 0
163 -340 0
164 -340 0
-205 -163 -164 340 0
206 -341 0
164 -341 0
-206 -164 341 0
-204 247 0
-332 247 0
204 332 -247 0
-205 248 0
-333 248 0
-334 248 0
205 333 334 -248 0
-206 249 0
-335 249 0
-336 249 0
-337 249 0
206 335 336 337 -249 0
-207 250 0
-338 250 0
-339 250 0
-340 250 0
-341 250 0
207 338 339 340 341 -250 0
250 -342 0
165 -342 0
-250 -165 342 0
250 -343 0
165 -343 0
166 -343 0
-250 -165 -166 343 0
208 -344 0
166 -344 0
-208 -166 344 0
250 -345 0
165 -345 0
166 -345 0
167 -345 0
-250 -165 -166 -167 345 0
208 -346 0
166 -346 0
167 -346 0
-208 -166 -167 346 0
209 -347 0
167 -347 0
-209 -167 347 0
250 -348 0
165 -348 0
166 -348 0
167 -348 0
168 -348 0
-250 -165 -166 -167 -168 348 0
208 -349 0
166 -349 0
167 -349 0
168 -349 0
-208 -166 -167 -168 349 0
209 -350 0
167 -350 0
168 -350 0
-209 -167 -168 350 0
210 -351 0
168 -351 0
-210 -168 351 0
-208 251 0
-342 251 0
208 342 -251 0
-209 252 0
-343 252 0
-344 252 0
209 343 344 -252 0
-210 253 0
-345 253 0
-346 253 0
-347 253 0
210 345 346 347 -253 0
-211 254 0
-348 254 0
-349 254 0
-350 254 0
-351 254 0
211 348 349 350 351 -254 0
254 -352 0
169 -352 0
-254 -169 352 0
254 -353 0
169 -353 0
170 -353 0
-254 -169 -170 353 0
212 -354 0
170 -354 0
-212 -170 354 0
254 -355 0
169 -355 0
170 -355 0
171 -355 0
-254 -169 -170 -171 355 0
212 -356 0
170 -356 0
171 -356 0
-212 -170 -171 356 0
213 -357 0
171 -357 0
-213 -171 357 0
254 -358 0
169 -358 0
170 -358 0
171 -358 0
172 -358 0
-254 -169 -170 -171 -172 358 0
212 -359 0
170 -359 0
171 -359 0
172 -359 0
-212 -170 -171 -172 359 0
213 -360 0
171 -360 0
172 -360 0
-213 -171 -172 360 0
214 -361 0
172 -361 0
-214 -172 361 0
-212 255 0
-352 255 0
212 352 -255 0
-213 256 0
-353 256 0
-354 256 0
213 353 354 -256 0
-214 257 0
-355 257 0
-356 257 0
-357 257 0
214 355 356 357 -257 0
-215 258 0
-358 258 0
-359 258 0
-360 258 0
-361 258 0
215 358 359 360 361 -258 0
258 -362 0
173 -362 0
-258 -173 362 0
258 -363 0
173 -363 0
174 -363 0
-258 -173 -174 363 0
216 -364 0
174 -364 0
-216 -174 364 0
258 -365 0
173 -365 0
174 -365 0
175 -365 0
-258 -173 -174 -175 365 0
216 -366 0
174 -366 0
175 -366 0
-216 -174 -175 366 0
217 -367 0
175 -367 0
-217 -175 367 0
-216 259 0
-362 259 0
216 362 -259 0
-217 260 0
-363 260 0
-364 260 0
217 363 364 -260 0
-218 261 0
-365 261 0
-366 261 0
-367 261 0
218 365 366 367 -261 0
133 131 -87 0
-133 131 87 0
133 -131 87 0
-133 -131 -87 0
134 219 -88 0
-134 219 88 0
134 -219 88 0
-134 -219 -88 0
135 220 -89 0
-135 220 89 0
135 -220 89 0
-135 -220 -89 0
136 221 -90 0
-136 221 90 0
136 -221 90 0
-136 -221 -90 0
137 222 -91 0
-137 222 91 0
137 -222 91 0
-137 -222 -91 0
138 223 -92 0
-138 223 92 0
138 -223 92 0
-138 -223 -92 0
139 224 -93 0
-139 224 93 0
139 -224 93 0
-139 -224 -93 0
140 225 -94 0
-140 225 94 0
140 -225 94 0
-140 -225 -94 0
141 226 -95 0
-141 226 95 0
141 -226 95 0
-141 -226 -95 0
142 227 -96 0
-142 227 96 0
142 -227 96 0
-142 -227 -96 0
143 228 -97 0
-143 228 97 0
143 -228 97 0
-143 -228 -97 0
144 229 -98 0
-144 229 98 0
144 -229 98 0
-144 -229 -98 0
145 230 -99 0
-145 230 99 0
145 -230 99 0
-145 -230 -99 0
146 231 -100 0
-146 231 100 0
146 -231 100 0
-146 -231 -100 0
147 232 -101 0
-147 232 101 0
147 -232 101 0
-147 -232 -101 0
148 233 -102 0
-148 233 102 0
148 -233 102 0
-148 -233 -102 0
149 234 -103 0
-149 234 103 0
149 -234 103 0
-149 -234 -103 0
150 235 -104 0
-150 235 104 0
150 -235 104 0
-150 -235 -104 0
151 236 -105 0
-151 236 105 0
151 -236 105 0
-151 -236 -105 0
152 237 -106 0
-152 237 106 0
152 -237 106 0
-152 -237 -106 0
153 238 -107 0
-153 238 107 0
153 -238 107 0
-153 -238 -107 0
154 239 -108 0
-154 239 108 0
154 -239 108 0
-154 -239 -108 0
155 240 -109 0
-155 240 109 0
155 -240 109 0
-155 -240 -109 0
156 241 -110 0
-156 241 110 0
156 -241 110 0
-156 -241 -110 0
157 242 -111 0
-157 242 111 0
157 -242 111 0
-157 -242 -111 0
158 243 -112 0
-158 243 112 0
158 -243 112 0
-158 -243 -112 0
159 244 -113 0
-159 244 113 0
159 -244 113 0
-159 -244 -113 0
160 245 -114 0
-160 245 114 0
160 -245 114 0
-160 -245 -114 0
161 246 -115 0
-161 246 115 0
161 -246 115 0
-161 -246 -115 0
162 247 -116 0
-162 247 116 0
162 -247 116 0
-162 -247 -116 0
163 248 -117 0
-163 248 117 0
163 -248 117 0
-163 -248 -117 0
164 249 -118 0
-164 249 118 0
164 -249 118 0
-164 -249 -118 0
165 250 -119 0
-165 250 119 0
165 -250 119 0
-165 -250 -119 0
166 251 -120 0
-166 251 120 0
166 -251 120 0
-166 -251 -120 0
167 252 -121 0
-167 252 121 0
167 -252 121 0
-167 -252 -121 0
168 253 -122 0
-168 253 122 0
168 -253 122 0
-168 -253 -122 0
169 254 -123 0
-169 254 123 0
169 -254 123 0
-169 -254 -123 0
170 255 -124 0
-170 255 124 0
170 -255 124 0
-170 -255 -124 0
171 256 -125 0
-171 256 125 0
171 -256 125 0
-171 -256 -125 0
172 257 -126 0
-172 257 126 0
172 -257 126 0
-172 -257 -126 0
173 258 -127 0
-173 258 127 0
173 -258 127 0
-173 -258 -127 0
174 259 -128 0
-174 259 128 0
174 -259 128 0
-174 -259 -128 0
175 260 -129 0
-175 260 129 0
175 -260 129 0
-175 -260 -129 0
261 -130 0
-261 130 0
